sat
(
  (define-fun D () String
    "jgfaihdfcbgff")
  (define-fun B () String
    "bgieagfdcahedjjjdcjgfaihdfcbgffbafedhbebghehgfehibbjdejbdafiidcbbec")
  (define-fun C () String
    "iahceaggigheiebjecf")
)
